p edge 1678 1643
e 1 2
e 1 3
e 1 4
e 1 5
e 1 6
e 1 7
e 1 8
e 1 9
e 1 10
e 1 11
e 1 12
e 1 13
e 1 14
e 1 15
e 1 16
e 1 17
e 1 18
e 1 19
e 1 20
e 1 21
e 1 22
e 1 23
e 1 24
e 1 25
e 1 26
e 1 27
e 1 28
e 1 29
e 1 30
e 1 31
e 1 32
e 1 33
e 1 34
e 1 35
e 36 37
e 36 38
e 36 39
e 36 40
e 36 41
e 36 42
e 36 43
e 36 44
e 36 45
e 36 46
e 36 47
e 36 48
e 36 49
e 36 50
e 36 51
e 36 52
e 36 53
e 54 55
e 54 56
e 54 57
e 54 58
e 54 59
e 54 60
e 54 61
e 54 62
e 54 63
e 54 64
e 54 65
e 54 66
e 54 67
e 54 68
e 54 69
e 54 70
e 54 71
e 54 72
e 54 73
e 54 74
e 54 75
e 54 76
e 54 77
e 54 78
e 54 79
e 54 80
e 54 81
e 54 82
e 54 83
e 54 84
e 54 85
e 54 86
e 54 87
e 54 88
e 54 89
e 54 90
e 54 91
e 54 92
e 54 93
e 54 94
e 54 95
e 54 96
e 54 97
e 54 98
e 54 99
e 54 100
e 54 101
e 54 102
e 54 103
e 54 104
e 54 105
e 54 106
e 54 107
e 54 108
e 54 109
e 54 110
e 54 111
e 54 112
e 54 113
e 54 114
e 54 115
e 54 116
e 54 117
e 54 118
e 54 119
e 54 120
e 54 121
e 54 122
e 54 123
e 54 124
e 54 125
e 54 126
e 54 127
e 54 128
e 54 129
e 54 130
e 54 131
e 54 132
e 54 133
e 54 134
e 54 135
e 54 136
e 54 137
e 138 139
e 138 140
e 138 141
e 138 142
e 138 143
e 138 144
e 138 145
e 138 146
e 138 147
e 138 148
e 149 150
e 149 151
e 149 152
e 149 153
e 149 154
e 149 155
e 149 156
e 149 157
e 149 158
e 149 159
e 149 160
e 149 161
e 149 162
e 149 163
e 149 164
e 149 165
e 149 166
e 149 167
e 149 168
e 149 169
e 149 170
e 149 171
e 149 172
e 149 173
e 149 174
e 149 175
e 149 176
e 149 177
e 149 178
e 149 179
e 149 180
e 149 181
e 149 182
e 149 183
e 149 184
e 149 185
e 149 186
e 149 187
e 149 188
e 149 189
e 149 190
e 149 191
e 149 192
e 149 193
e 149 194
e 149 195
e 149 196
e 149 197
e 149 198
e 149 199
e 149 200
e 149 201
e 149 202
e 149 203
e 149 204
e 149 205
e 149 206
e 149 207
e 149 208
e 149 209
e 149 210
e 149 211
e 149 212
e 149 213
e 149 214
e 149 215
e 216 217
e 216 218
e 216 219
e 216 220
e 216 221
e 216 222
e 216 223
e 216 224
e 216 225
e 216 226
e 216 227
e 216 228
e 216 229
e 216 230
e 216 231
e 216 232
e 216 233
e 216 234
e 216 235
e 216 236
e 216 237
e 216 238
e 216 239
e 216 240
e 216 241
e 216 242
e 216 243
e 216 244
e 216 245
e 246 247
e 246 248
e 246 249
e 246 250
e 246 251
e 246 252
e 246 253
e 246 254
e 246 255
e 246 256
e 246 257
e 246 258
e 246 259
e 246 260
e 246 261
e 246 262
e 246 263
e 246 264
e 246 265
e 246 266
e 246 267
e 246 268
e 246 269
e 246 270
e 246 271
e 246 272
e 246 273
e 246 274
e 246 275
e 246 276
e 246 277
e 246 278
e 246 279
e 246 280
e 246 281
e 246 282
e 246 283
e 246 284
e 246 285
e 246 286
e 246 287
e 246 288
e 246 289
e 246 290
e 246 291
e 246 292
e 246 293
e 246 294
e 246 295
e 246 296
e 246 297
e 246 298
e 246 299
e 246 300
e 246 301
e 246 302
e 246 303
e 246 304
e 246 305
e 246 306
e 246 307
e 246 308
e 246 309
e 246 310
e 246 311
e 246 312
e 246 313
e 246 314
e 315 316
e 315 317
e 315 318
e 315 319
e 315 320
e 315 321
e 315 322
e 315 323
e 315 324
e 315 325
e 315 326
e 315 327
e 315 328
e 315 329
e 315 330
e 315 331
e 315 332
e 315 333
e 315 334
e 315 335
e 315 336
e 315 337
e 315 338
e 315 339
e 315 340
e 315 341
e 315 342
e 315 343
e 315 344
e 315 345
e 315 346
e 315 347
e 315 348
e 315 349
e 315 350
e 315 351
e 315 352
e 315 353
e 315 354
e 315 355
e 315 356
e 315 357
e 315 358
e 315 359
e 315 360
e 315 361
e 315 362
e 315 363
e 315 364
e 315 365
e 315 366
e 315 367
e 315 368
e 315 369
e 315 370
e 315 371
e 315 372
e 315 373
e 315 374
e 315 375
e 315 376
e 315 377
e 315 378
e 315 379
e 315 380
e 315 381
e 315 382
e 315 383
e 315 384
e 315 385
e 315 386
e 315 387
e 315 388
e 315 389
e 315 390
e 315 391
e 315 392
e 315 393
e 315 394
e 315 395
e 315 396
e 315 397
e 315 398
e 315 399
e 315 400
e 315 401
e 315 402
e 315 403
e 315 404
e 315 405
e 315 406
e 315 407
e 408 409
e 408 410
e 408 411
e 408 412
e 408 413
e 408 414
e 408 415
e 408 416
e 408 417
e 408 418
e 408 419
e 408 420
e 408 421
e 408 422
e 408 423
e 408 424
e 408 425
e 408 426
e 408 427
e 408 428
e 408 429
e 408 430
e 408 431
e 408 432
e 408 433
e 408 434
e 408 435
e 408 436
e 408 437
e 408 438
e 408 439
e 408 440
e 408 441
e 408 442
e 408 443
e 408 444
e 408 445
e 408 446
e 408 447
e 408 448
e 408 449
e 408 450
e 408 451
e 408 452
e 408 453
e 408 454
e 408 455
e 408 456
e 408 457
e 408 458
e 408 459
e 408 460
e 408 461
e 408 462
e 408 463
e 408 464
e 408 465
e 408 466
e 408 467
e 408 468
e 408 469
e 408 470
e 408 471
e 408 472
e 408 473
e 408 474
e 408 475
e 408 476
e 408 477
e 408 478
e 408 479
e 408 480
e 408 481
e 408 482
e 408 483
e 408 484
e 408 485
e 408 486
e 408 487
e 408 488
e 408 489
e 408 490
e 408 491
e 408 492
e 493 494
e 493 495
e 493 496
e 493 497
e 493 498
e 493 499
e 493 500
e 493 501
e 493 502
e 493 503
e 493 504
e 493 505
e 493 506
e 493 507
e 493 508
e 493 509
e 493 510
e 493 511
e 493 512
e 493 513
e 493 514
e 493 515
e 493 516
e 493 517
e 493 518
e 493 519
e 493 520
e 493 521
e 493 522
e 493 523
e 493 524
e 493 525
e 493 526
e 493 527
e 493 528
e 493 529
e 493 530
e 493 531
e 493 532
e 493 533
e 493 534
e 493 535
e 493 536
e 493 537
e 493 538
e 493 539
e 493 540
e 493 541
e 493 542
e 493 543
e 493 544
e 493 545
e 493 546
e 493 547
e 493 548
e 493 549
e 493 550
e 493 551
e 493 552
e 493 553
e 493 554
e 493 555
e 493 556
e 493 557
e 493 558
e 493 559
e 493 560
e 493 561
e 493 562
e 493 563
e 493 564
e 493 565
e 493 566
e 493 567
e 493 568
e 493 569
e 493 570
e 493 571
e 493 572
e 493 573
e 493 574
e 493 575
e 493 576
e 577 578
e 577 579
e 577 580
e 577 581
e 577 582
e 577 583
e 577 584
e 577 585
e 577 586
e 577 587
e 577 588
e 577 589
e 577 590
e 577 591
e 577 592
e 577 593
e 577 594
e 577 595
e 577 596
e 577 597
e 577 598
e 577 599
e 577 600
e 601 602
e 601 603
e 601 604
e 601 605
e 601 606
e 601 607
e 601 608
e 601 609
e 601 610
e 601 611
e 601 612
e 601 613
e 601 614
e 601 615
e 601 616
e 601 617
e 601 618
e 619 620
e 619 621
e 619 622
e 619 623
e 619 624
e 619 625
e 619 626
e 619 627
e 619 628
e 619 629
e 619 630
e 619 631
e 619 632
e 619 633
e 619 634
e 619 635
e 619 636
e 619 637
e 619 638
e 619 639
e 619 640
e 619 641
e 619 642
e 619 643
e 619 644
e 619 645
e 619 646
e 619 647
e 619 648
e 619 649
e 619 650
e 619 651
e 619 652
e 619 653
e 619 654
e 619 655
e 619 656
e 619 657
e 619 658
e 619 659
e 619 660
e 619 661
e 619 662
e 619 663
e 619 664
e 619 665
e 619 666
e 619 667
e 619 668
e 619 669
e 619 670
e 619 671
e 619 672
e 619 673
e 619 674
e 619 675
e 619 676
e 619 677
e 678 679
e 678 680
e 678 681
e 678 682
e 678 683
e 678 684
e 678 685
e 678 686
e 678 687
e 678 688
e 678 689
e 678 690
e 678 691
e 678 692
e 678 693
e 678 694
e 678 695
e 678 696
e 678 697
e 678 698
e 678 699
e 678 700
e 678 701
e 678 702
e 678 703
e 678 704
e 678 705
e 678 706
e 678 707
e 678 708
e 678 709
e 678 710
e 678 711
e 678 712
e 678 713
e 678 714
e 678 715
e 678 716
e 678 717
e 678 718
e 678 719
e 678 720
e 678 721
e 678 722
e 678 723
e 678 724
e 678 725
e 678 726
e 678 727
e 678 728
e 678 729
e 678 730
e 678 731
e 678 732
e 678 733
e 678 734
e 678 735
e 678 736
e 678 737
e 678 738
e 678 739
e 678 740
e 678 741
e 678 742
e 678 743
e 678 744
e 678 745
e 678 746
e 678 747
e 678 748
e 678 749
e 678 750
e 678 751
e 678 752
e 678 753
e 678 754
e 678 755
e 678 756
e 678 757
e 678 758
e 678 759
e 678 760
e 678 761
e 678 762
e 678 763
e 678 764
e 678 765
e 678 766
e 678 767
e 768 769
e 768 770
e 768 771
e 768 772
e 768 773
e 768 774
e 768 775
e 768 776
e 768 777
e 768 778
e 768 779
e 768 780
e 768 781
e 768 782
e 768 783
e 768 784
e 768 785
e 768 786
e 768 787
e 768 788
e 768 789
e 768 790
e 768 791
e 768 792
e 768 793
e 768 794
e 768 795
e 768 796
e 768 797
e 768 798
e 768 799
e 768 800
e 768 801
e 768 802
e 768 803
e 768 804
e 768 805
e 768 806
e 768 807
e 768 808
e 809 810
e 809 811
e 809 812
e 809 813
e 809 814
e 809 815
e 809 816
e 809 817
e 809 818
e 809 819
e 809 820
e 809 821
e 822 823
e 822 824
e 822 825
e 822 826
e 822 827
e 822 828
e 822 829
e 822 830
e 822 831
e 822 832
e 822 833
e 822 834
e 822 835
e 822 836
e 822 837
e 822 838
e 822 839
e 822 840
e 822 841
e 822 842
e 822 843
e 822 844
e 822 845
e 822 846
e 822 847
e 822 848
e 822 849
e 850 851
e 850 852
e 850 853
e 850 854
e 850 855
e 850 856
e 850 857
e 850 858
e 850 859
e 850 860
e 850 861
e 850 862
e 850 863
e 850 864
e 850 865
e 850 866
e 850 867
e 850 868
e 850 869
e 850 870
e 850 871
e 850 872
e 850 873
e 850 874
e 850 875
e 850 876
e 850 877
e 850 878
e 850 879
e 850 880
e 850 881
e 850 882
e 850 883
e 850 884
e 850 885
e 850 886
e 850 887
e 850 888
e 850 889
e 850 890
e 850 891
e 850 892
e 850 893
e 850 894
e 850 895
e 850 896
e 850 897
e 850 898
e 850 899
e 850 900
e 850 901
e 850 902
e 850 903
e 850 904
e 850 905
e 850 906
e 850 907
e 850 908
e 850 909
e 850 910
e 850 911
e 850 912
e 850 913
e 850 914
e 850 915
e 850 916
e 850 917
e 850 918
e 850 919
e 850 920
e 850 921
e 850 922
e 850 923
e 850 924
e 850 925
e 850 926
e 850 927
e 850 928
e 850 929
e 850 930
e 850 931
e 850 932
e 850 933
e 850 934
e 850 935
e 850 936
e 850 937
e 850 938
e 850 939
e 850 940
e 941 942
e 941 943
e 941 944
e 941 945
e 941 946
e 941 947
e 941 948
e 941 949
e 941 950
e 941 951
e 941 952
e 953 954
e 953 955
e 953 956
e 953 957
e 953 958
e 953 959
e 953 960
e 953 961
e 953 962
e 953 963
e 953 964
e 953 965
e 953 966
e 953 967
e 953 968
e 953 969
e 953 970
e 953 971
e 953 972
e 953 973
e 953 974
e 953 975
e 953 976
e 953 977
e 953 978
e 953 979
e 953 980
e 953 981
e 953 982
e 953 983
e 953 984
e 953 985
e 953 986
e 953 987
e 953 988
e 953 989
e 953 990
e 953 991
e 953 992
e 953 993
e 953 994
e 953 995
e 953 996
e 953 997
e 953 998
e 953 999
e 953 1000
e 953 1001
e 953 1002
e 953 1003
e 953 1004
e 953 1005
e 953 1006
e 953 1007
e 953 1008
e 953 1009
e 953 1010
e 953 1011
e 953 1012
e 1013 1014
e 1013 1015
e 1013 1016
e 1013 1017
e 1013 1018
e 1013 1019
e 1013 1020
e 1013 1021
e 1013 1022
e 1013 1023
e 1013 1024
e 1013 1025
e 1026 1027
e 1026 1028
e 1026 1029
e 1026 1030
e 1026 1031
e 1026 1032
e 1026 1033
e 1026 1034
e 1026 1035
e 1026 1036
e 1026 1037
e 1026 1038
e 1026 1039
e 1026 1040
e 1026 1041
e 1026 1042
e 1026 1043
e 1026 1044
e 1026 1045
e 1026 1046
e 1026 1047
e 1026 1048
e 1026 1049
e 1026 1050
e 1026 1051
e 1026 1052
e 1026 1053
e 1026 1054
e 1026 1055
e 1026 1056
e 1026 1057
e 1026 1058
e 1026 1059
e 1026 1060
e 1026 1061
e 1026 1062
e 1026 1063
e 1026 1064
e 1026 1065
e 1026 1066
e 1026 1067
e 1026 1068
e 1026 1069
e 1026 1070
e 1026 1071
e 1026 1072
e 1026 1073
e 1026 1074
e 1026 1075
e 1026 1076
e 1026 1077
e 1026 1078
e 1026 1079
e 1026 1080
e 1026 1081
e 1026 1082
e 1026 1083
e 1026 1084
e 1026 1085
e 1026 1086
e 1026 1087
e 1026 1088
e 1026 1089
e 1026 1090
e 1026 1091
e 1092 1093
e 1092 1094
e 1092 1095
e 1092 1096
e 1092 1097
e 1092 1098
e 1092 1099
e 1092 1100
e 1092 1101
e 1092 1102
e 1092 1103
e 1092 1104
e 1092 1105
e 1092 1106
e 1092 1107
e 1092 1108
e 1092 1109
e 1092 1110
e 1092 1111
e 1092 1112
e 1092 1113
e 1092 1114
e 1092 1115
e 1092 1116
e 1092 1117
e 1092 1118
e 1092 1119
e 1092 1120
e 1092 1121
e 1092 1122
e 1092 1123
e 1092 1124
e 1092 1125
e 1092 1126
e 1092 1127
e 1092 1128
e 1092 1129
e 1092 1130
e 1092 1131
e 1092 1132
e 1092 1133
e 1092 1134
e 1092 1135
e 1092 1136
e 1092 1137
e 1092 1138
e 1092 1139
e 1092 1140
e 1092 1141
e 1092 1142
e 1092 1143
e 1092 1144
e 1092 1145
e 1092 1146
e 1092 1147
e 1092 1148
e 1092 1149
e 1092 1150
e 1092 1151
e 1092 1152
e 1092 1153
e 1092 1154
e 1092 1155
e 1092 1156
e 1092 1157
e 1092 1158
e 1092 1159
e 1092 1160
e 1092 1161
e 1092 1162
e 1092 1163
e 1092 1164
e 1092 1165
e 1092 1166
e 1092 1167
e 1092 1168
e 1092 1169
e 1092 1170
e 1092 1171
e 1092 1172
e 1092 1173
e 1092 1174
e 1092 1175
e 1092 1176
e 1092 1177
e 1092 1178
e 1179 1180
e 1179 1181
e 1179 1182
e 1179 1183
e 1179 1184
e 1179 1185
e 1179 1186
e 1179 1187
e 1179 1188
e 1179 1189
e 1179 1190
e 1179 1191
e 1179 1192
e 1179 1193
e 1179 1194
e 1179 1195
e 1196 1197
e 1196 1198
e 1196 1199
e 1196 1200
e 1196 1201
e 1196 1202
e 1196 1203
e 1196 1204
e 1196 1205
e 1196 1206
e 1196 1207
e 1196 1208
e 1196 1209
e 1196 1210
e 1196 1211
e 1196 1212
e 1196 1213
e 1196 1214
e 1196 1215
e 1196 1216
e 1196 1217
e 1196 1218
e 1196 1219
e 1196 1220
e 1196 1221
e 1196 1222
e 1196 1223
e 1196 1224
e 1196 1225
e 1196 1226
e 1196 1227
e 1196 1228
e 1196 1229
e 1196 1230
e 1196 1231
e 1196 1232
e 1196 1233
e 1196 1234
e 1196 1235
e 1196 1236
e 1196 1237
e 1196 1238
e 1196 1239
e 1196 1240
e 1196 1241
e 1196 1242
e 1196 1243
e 1196 1244
e 1196 1245
e 1196 1246
e 1247 1248
e 1247 1249
e 1247 1250
e 1247 1251
e 1247 1252
e 1247 1253
e 1247 1254
e 1247 1255
e 1247 1256
e 1247 1257
e 1247 1258
e 1247 1259
e 1247 1260
e 1247 1261
e 1247 1262
e 1247 1263
e 1247 1264
e 1247 1265
e 1247 1266
e 1247 1267
e 1247 1268
e 1247 1269
e 1247 1270
e 1247 1271
e 1247 1272
e 1247 1273
e 1247 1274
e 1247 1275
e 1247 1276
e 1277 1278
e 1277 1279
e 1277 1280
e 1277 1281
e 1277 1282
e 1277 1283
e 1277 1284
e 1277 1285
e 1277 1286
e 1277 1287
e 1277 1288
e 1277 1289
e 1277 1290
e 1277 1291
e 1277 1292
e 1277 1293
e 1277 1294
e 1277 1295
e 1277 1296
e 1277 1297
e 1277 1298
e 1277 1299
e 1277 1300
e 1277 1301
e 1277 1302
e 1277 1303
e 1277 1304
e 1277 1305
e 1277 1306
e 1277 1307
e 1277 1308
e 1277 1309
e 1277 1310
e 1277 1311
e 1277 1312
e 1277 1313
e 1277 1314
e 1277 1315
e 1277 1316
e 1277 1317
e 1277 1318
e 1277 1319
e 1277 1320
e 1277 1321
e 1277 1322
e 1277 1323
e 1277 1324
e 1277 1325
e 1277 1326
e 1277 1327
e 1277 1328
e 1277 1329
e 1277 1330
e 1277 1331
e 1277 1332
e 1277 1333
e 1277 1334
e 1277 1335
e 1277 1336
e 1277 1337
e 1277 1338
e 1277 1339
e 1277 1340
e 1277 1341
e 1277 1342
e 1277 1343
e 1277 1344
e 1277 1345
e 1277 1346
e 1277 1347
e 1277 1348
e 1277 1349
e 1277 1350
e 1277 1351
e 1277 1352
e 1277 1353
e 1354 1355
e 1354 1356
e 1354 1357
e 1354 1358
e 1354 1359
e 1354 1360
e 1354 1361
e 1354 1362
e 1354 1363
e 1354 1364
e 1354 1365
e 1354 1366
e 1354 1367
e 1354 1368
e 1354 1369
e 1354 1370
e 1354 1371
e 1354 1372
e 1354 1373
e 1354 1374
e 1354 1375
e 1354 1376
e 1354 1377
e 1354 1378
e 1354 1379
e 1354 1380
e 1354 1381
e 1354 1382
e 1354 1383
e 1354 1384
e 1354 1385
e 1354 1386
e 1354 1387
e 1354 1388
e 1354 1389
e 1354 1390
e 1354 1391
e 1354 1392
e 1354 1393
e 1354 1394
e 1354 1395
e 1354 1396
e 1354 1397
e 1354 1398
e 1354 1399
e 1354 1400
e 1354 1401
e 1354 1402
e 1354 1403
e 1354 1404
e 1354 1405
e 1354 1406
e 1354 1407
e 1354 1408
e 1354 1409
e 1354 1410
e 1354 1411
e 1354 1412
e 1354 1413
e 1354 1414
e 1354 1415
e 1354 1416
e 1354 1417
e 1354 1418
e 1354 1419
e 1354 1420
e 1354 1421
e 1354 1422
e 1354 1423
e 1354 1424
e 1354 1425
e 1354 1426
e 1354 1427
e 1428 1429
e 1428 1430
e 1428 1431
e 1428 1432
e 1428 1433
e 1428 1434
e 1428 1435
e 1428 1436
e 1428 1437
e 1428 1438
e 1428 1439
e 1428 1440
e 1428 1441
e 1428 1442
e 1428 1443
e 1428 1444
e 1428 1445
e 1428 1446
e 1428 1447
e 1428 1448
e 1428 1449
e 1428 1450
e 1428 1451
e 1428 1452
e 1453 1454
e 1453 1455
e 1453 1456
e 1453 1457
e 1453 1458
e 1453 1459
e 1453 1460
e 1453 1461
e 1453 1462
e 1453 1463
e 1453 1464
e 1453 1465
e 1453 1466
e 1453 1467
e 1453 1468
e 1453 1469
e 1453 1470
e 1453 1471
e 1453 1472
e 1453 1473
e 1453 1474
e 1453 1475
e 1453 1476
e 1453 1477
e 1453 1478
e 1453 1479
e 1453 1480
e 1453 1481
e 1453 1482
e 1453 1483
e 1453 1484
e 1453 1485
e 1453 1486
e 1453 1487
e 1453 1488
e 1453 1489
e 1453 1490
e 1453 1491
e 1453 1492
e 1453 1493
e 1453 1494
e 1453 1495
e 1453 1496
e 1453 1497
e 1453 1498
e 1453 1499
e 1453 1500
e 1501 1502
e 1501 1503
e 1501 1504
e 1501 1505
e 1501 1506
e 1501 1507
e 1501 1508
e 1501 1509
e 1501 1510
e 1501 1511
e 1501 1512
e 1501 1513
e 1501 1514
e 1501 1515
e 1501 1516
e 1501 1517
e 1501 1518
e 1501 1519
e 1520 1521
e 1520 1522
e 1520 1523
e 1520 1524
e 1520 1525
e 1520 1526
e 1520 1527
e 1520 1528
e 1520 1529
e 1520 1530
e 1520 1531
e 1520 1532
e 1520 1533
e 1520 1534
e 1520 1535
e 1520 1536
e 1520 1537
e 1520 1538
e 1520 1539
e 1520 1540
e 1520 1541
e 1520 1542
e 1520 1543
e 1520 1544
e 1520 1545
e 1520 1546
e 1520 1547
e 1520 1548
e 1520 1549
e 1520 1550
e 1520 1551
e 1520 1552
e 1520 1553
e 1520 1554
e 1520 1555
e 1520 1556
e 1520 1557
e 1520 1558
e 1520 1559
e 1520 1560
e 1520 1561
e 1520 1562
e 1520 1563
e 1520 1564
e 1520 1565
e 1520 1566
e 1520 1567
e 1520 1568
e 1520 1569
e 1520 1570
e 1520 1571
e 1520 1572
e 1520 1573
e 1520 1574
e 1520 1575
e 1520 1576
e 1520 1577
e 1520 1578
e 1520 1579
e 1520 1580
e 1520 1581
e 1520 1582
e 1520 1583
e 1520 1584
e 1520 1585
e 1520 1586
e 1520 1587
e 1588 1589
e 1588 1590
e 1588 1591
e 1588 1592
e 1588 1593
e 1588 1594
e 1588 1595
e 1588 1596
e 1588 1597
e 1588 1598
e 1588 1599
e 1588 1600
e 1588 1601
e 1588 1602
e 1588 1603
e 1588 1604
e 1588 1605
e 1588 1606
e 1607 1608
e 1607 1609
e 1607 1610
e 1607 1611
e 1607 1612
e 1607 1613
e 1607 1614
e 1607 1615
e 1607 1616
e 1607 1617
e 1607 1618
e 1607 1619
e 1607 1620
e 1607 1621
e 1607 1622
e 1607 1623
e 1607 1624
e 1607 1625
e 1607 1626
e 1607 1627
e 1607 1628
e 1607 1629
e 1607 1630
e 1607 1631
e 1607 1632
e 1607 1633
e 1607 1634
e 1607 1635
e 1607 1636
e 1607 1637
e 1607 1638
e 1607 1639
e 1607 1640
e 1607 1641
e 1607 1642
e 1607 1643
e 1607 1644
e 1607 1645
e 1646 1647
e 1646 1648
e 1646 1649
e 1646 1650
e 1646 1651
e 1646 1652
e 1646 1653
e 1646 1654
e 1646 1655
e 1646 1656
e 1646 1657
e 1646 1658
e 1646 1659
e 1646 1660
e 1646 1661
e 1646 1662
e 1646 1663
e 1646 1664
e 1646 1665
e 1646 1666
e 1646 1667
e 1646 1668
e 1646 1669
e 1646 1670
e 1646 1671
e 1646 1672
e 1646 1673
e 1646 1674
e 1646 1675
e 1646 1676
e 1646 1677
e 1646 1678
